NAME 
ROWS
 N  OBJ
 L  R0      
 L  R1      
 L  R2      
 L  R3      
 L  R4      
 L  R5      
 L  R6      
 L  R7      
 L  R8      
 L  R9      
 L  R10     
 L  R11     
 L  R12     
 L  R13     
 L  R14     
 L  R15     
 L  R16     
 L  R17     
 L  R18     
 L  R19     
 L  R20     
 L  R21     
 L  R22     
 L  R23     
 L  R24     
 L  R25     
 L  R26     
 L  R27     
 L  R28     
 L  R29     
 L  R30     
 L  R31     
 L  R32     
 L  R33     
 L  R34     
 L  R35     
 L  R36     
 L  R37     
 L  R38     
 L  R39     
 L  R40     
 L  R41     
 L  R42     
 L  R43     
 L  R44     
 L  R45     
 L  R46     
 L  R47     
 L  R48     
 L  R49     
 L  R50     
 L  R51     
 L  R52     
 L  R53     
 L  R54     
 L  R55     
 L  R56     
 L  R57     
 L  R58     
 L  R59     
 L  R60     
 L  R61     
 L  R62     
 L  R63     
 L  R64     
 L  R65     
 L  R66     
 L  R67     
 L  R68     
 L  R69     
 L  R70     
 L  R71     
 L  R72     
 L  R73     
 L  R74     
 L  R75     
 L  R76     
 L  R77     
 L  R78     
 L  R79     
 L  R80     
 L  R81     
 L  R82     
 L  R83     
 L  R84     
 L  R85     
 L  R86     
 L  R87     
 L  R88     
 L  R89     
 L  R90     
 L  R91     
 L  R92     
 L  R93     
 L  R94     
 L  R95     
 L  R96     
 L  R97     
 L  R98     
 L  R99     
 L  R100    
 L  R101    
 L  R102    
 L  R103    
 L  R104    
 L  R105    
 L  R106    
 L  R107    
 L  R108    
 L  R109    
 L  R110    
 L  R111    
 L  R112    
 L  R113    
 L  R114    
 L  R115    
 L  R116    
 L  R117    
 L  R118    
 L  R119    
 L  R120    
 L  R121    
 L  R122    
 L  R123    
 L  R124    
 L  R125    
 L  R126    
 L  R127    
 L  R128    
 L  R129    
 L  R130    
 L  R131    
 L  R132    
 L  R133    
 L  R134    
 L  R135    
 L  R136    
 L  R137    
 L  R138    
 L  R139    
 L  R140    
 L  R141    
 L  R142    
 L  R143    
 L  R144    
 L  R145    
 L  R146    
 L  R147    
 L  R148    
 L  R149    
 L  R150    
 L  R151    
 L  R152    
 L  R153    
 L  R154    
 L  R155    
 L  R156    
 L  R157    
 L  R158    
 L  R159    
 L  R160    
 L  R161    
 L  R162    
 L  R163    
 L  R164    
 L  R165    
 L  R166    
 L  R167    
 L  R168    
 L  R169    
 L  R170    
 L  R171    
 L  R172    
 L  R173    
 L  R174    
 L  R175    
 L  R176    
 L  R177    
 L  R178    
 L  R179    
 L  R180    
 L  R181    
 L  R182    
 L  R183    
 L  R184    
 L  R185    
 L  R186    
 L  R187    
 L  R188    
 L  R189    
 L  R190    
COLUMNS
    MARKER    'MARKER'                 'INTORG'
    x[0]      R0        1
    x[0]      R1        1
    x[1]      R0        1
    x[1]      R2        1
    x[2]      R0        1
    x[2]      R3        1
    x[3]      R0        1
    x[3]      R4        1
    x[4]      R0        1
    x[4]      R5        1
    x[5]      R0        1
    x[5]      R6        1
    x[6]      R0        1
    x[6]      R7        1
    x[7]      R0        1
    x[7]      R8        1
    x[8]      R0        1
    x[8]      R9        1
    x[9]      R0        1
    x[9]      R10       1
    x[10]     R0        1
    x[10]     R11       1
    x[11]     R0        1
    x[11]     R12       1
    x[12]     R0        1
    x[12]     R13       1
    x[13]     R0        1
    x[13]     R14       1
    x[14]     R0        1
    x[14]     R15       1
    x[15]     R0        1
    x[15]     R16       1
    x[16]     R0        1
    x[16]     R17       1
    x[17]     R0        1
    x[17]     R18       1
    x[18]     R0        1
    x[18]     R19       1
    x[19]     R0        1
    x[19]     R20       1
    x[20]     R0        1
    x[20]     R21       1
    x[21]     R0        1
    x[21]     R22       1
    x[22]     R0        1
    x[22]     R23       1
    x[23]     R0        1
    x[23]     R24       1
    x[24]     R0        1
    x[24]     R25       1
    x[25]     R0        1
    x[25]     R26       1
    x[26]     R0        1
    x[26]     R27       1
    x[27]     R0        1
    x[27]     R28       1
    x[28]     R0        1
    x[28]     R29       1
    x[29]     R0        1
    x[29]     R30       1
    x[30]     R0        1
    x[30]     R31       1
    x[31]     R0        1
    x[31]     R32       1
    x[32]     R0        1
    x[32]     R33       1
    x[33]     R0        1
    x[33]     R34       1
    x[34]     R0        1
    x[34]     R35       1
    x[35]     R0        1
    x[35]     R36       1
    x[36]     R0        1
    x[36]     R37       1
    x[37]     R0        1
    x[37]     R38       1
    x[38]     R0        1
    x[38]     R39       1
    x[39]     R0        1
    x[39]     R40       1
    x[40]     R0        1
    x[40]     R41       1
    x[41]     R0        1
    x[41]     R42       1
    x[42]     R0        1
    x[42]     R43       1
    x[43]     R0        1
    x[43]     R44       1
    x[44]     R0        1
    x[44]     R45       1
    x[45]     R0        1
    x[45]     R46       1
    x[46]     R0        1
    x[46]     R47       1
    x[47]     R0        1
    x[47]     R48       1
    x[48]     R0        1
    x[48]     R49       1
    x[49]     R0        1
    x[49]     R50       1
    x[50]     R0        1
    x[50]     R51       1
    x[51]     R0        1
    x[51]     R52       1
    x[52]     R0        1
    x[52]     R53       1
    x[53]     R0        1
    x[53]     R54       1
    x[54]     R0        1
    x[54]     R55       1
    x[55]     R0        1
    x[55]     R56       1
    x[56]     R0        1
    x[56]     R57       1
    x[57]     R0        1
    x[57]     R58       1
    x[58]     R0        1
    x[58]     R59       1
    x[59]     R0        1
    x[59]     R60       1
    x[60]     R0        1
    x[60]     R61       1
    x[61]     R0        1
    x[61]     R62       1
    x[62]     R0        1
    x[62]     R63       1
    x[63]     R0        1
    x[63]     R64       1
    x[64]     R0        1
    x[64]     R65       1
    x[65]     R0        1
    x[65]     R66       1
    x[66]     R0        1
    x[66]     R67       1
    x[67]     R0        1
    x[67]     R68       1
    x[68]     R0        1
    x[68]     R69       1
    x[69]     R0        1
    x[69]     R70       1
    x[70]     R0        1
    x[70]     R71       1
    x[71]     R0        1
    x[71]     R72       1
    x[72]     R0        1
    x[72]     R73       1
    x[73]     R0        1
    x[73]     R74       1
    x[74]     R0        1
    x[74]     R75       1
    x[75]     R0        1
    x[75]     R76       1
    x[76]     R0        1
    x[76]     R77       1
    x[77]     R0        1
    x[77]     R78       1
    x[78]     R0        1
    x[78]     R79       1
    x[79]     R0        1
    x[79]     R80       1
    x[80]     R0        1
    x[80]     R81       1
    x[81]     R0        1
    x[81]     R82       1
    x[82]     R0        1
    x[82]     R83       1
    x[83]     R0        1
    x[83]     R84       1
    x[84]     R0        1
    x[84]     R85       1
    x[85]     R0        1
    x[85]     R86       1
    x[86]     R0        1
    x[86]     R87       1
    x[87]     R0        1
    x[87]     R88       1
    x[88]     R0        1
    x[88]     R89       1
    x[89]     R0        1
    x[89]     R90       1
    x[90]     R0        1
    x[90]     R91       1
    x[91]     R0        1
    x[91]     R92       1
    x[92]     R0        1
    x[92]     R93       1
    x[93]     R0        1
    x[93]     R94       1
    x[94]     R0        1
    x[94]     R95       1
    x[95]     R0        1
    x[95]     R96       1
    x[96]     R0        1
    x[96]     R97       1
    x[97]     R0        1
    x[97]     R98       1
    x[98]     R0        1
    x[98]     R99       1
    x[99]     R0        1
    x[99]     R100      1
    x[100]    R0        1
    x[100]    R101      1
    x[101]    R0        1
    x[101]    R102      1
    x[102]    R0        1
    x[102]    R103      1
    x[103]    R0        1
    x[103]    R104      1
    x[104]    R0        1
    x[104]    R105      1
    x[105]    R0        1
    x[105]    R106      1
    x[106]    R0        1
    x[106]    R107      1
    x[107]    R0        1
    x[107]    R108      1
    x[108]    R0        1
    x[108]    R109      1
    x[109]    R0        1
    x[109]    R110      1
    x[110]    R0        1
    x[110]    R111      1
    x[111]    R0        1
    x[111]    R112      1
    x[112]    R0        1
    x[112]    R113      1
    x[113]    R0        1
    x[113]    R114      1
    x[114]    R0        1
    x[114]    R115      1
    x[115]    R0        1
    x[115]    R116      1
    x[116]    R0        1
    x[116]    R117      1
    x[117]    R0        1
    x[117]    R118      1
    x[118]    R0        1
    x[118]    R119      1
    x[119]    R0        1
    x[119]    R120      1
    x[120]    R0        1
    x[120]    R121      1
    x[121]    R0        1
    x[121]    R122      1
    x[122]    R0        1
    x[122]    R123      1
    x[123]    R0        1
    x[123]    R124      1
    x[124]    R0        1
    x[124]    R125      1
    x[125]    R0        1
    x[125]    R126      1
    x[126]    R0        1
    x[126]    R127      1
    x[127]    R0        1
    x[127]    R128      1
    x[128]    R0        1
    x[128]    R129      1
    x[129]    R0        1
    x[129]    R130      1
    x[130]    R0        1
    x[130]    R131      1
    x[131]    R0        1
    x[131]    R132      1
    x[132]    R0        1
    x[132]    R133      1
    x[133]    R0        1
    x[133]    R134      1
    x[134]    R0        1
    x[134]    R135      1
    x[135]    R0        1
    x[135]    R136      1
    x[136]    R0        1
    x[136]    R137      1
    x[137]    R0        1
    x[137]    R138      1
    x[138]    R0        1
    x[138]    R139      1
    x[139]    R0        1
    x[139]    R140      1
    x[140]    R0        1
    x[140]    R141      1
    x[141]    R0        1
    x[141]    R142      1
    x[142]    R0        1
    x[142]    R143      1
    x[143]    R0        1
    x[143]    R144      1
    x[144]    R0        1
    x[144]    R145      1
    x[145]    R0        1
    x[145]    R146      1
    x[146]    R0        1
    x[146]    R147      1
    x[147]    R0        1
    x[147]    R148      1
    x[148]    R0        1
    x[148]    R149      1
    x[149]    R0        1
    x[149]    R150      1
    x[150]    R0        1
    x[150]    R151      1
    x[151]    R0        1
    x[151]    R152      1
    x[152]    R0        1
    x[152]    R153      1
    x[153]    R0        1
    x[153]    R154      1
    x[154]    R0        1
    x[154]    R155      1
    x[155]    R0        1
    x[155]    R156      1
    x[156]    R0        1
    x[156]    R157      1
    x[157]    R0        1
    x[157]    R158      1
    x[158]    R0        1
    x[158]    R159      1
    x[159]    R0        1
    x[159]    R160      1
    x[160]    R0        1
    x[160]    R161      1
    x[161]    R0        1
    x[161]    R162      1
    x[162]    R0        1
    x[162]    R163      1
    x[163]    R0        1
    x[163]    R164      1
    x[164]    R0        1
    x[164]    R165      1
    x[165]    R0        1
    x[165]    R166      1
    x[166]    R0        1
    x[166]    R167      1
    x[167]    R0        1
    x[167]    R168      1
    x[168]    R0        1
    x[168]    R169      1
    x[169]    R0        1
    x[169]    R170      1
    x[170]    R0        1
    x[170]    R171      1
    y[0]      OBJ       1
    y[0]      R1        1
    y[0]      R2        1
    y[0]      R3        1
    y[0]      R4        1
    y[0]      R5        1
    y[0]      R6        1
    y[0]      R7        1
    y[0]      R8        1
    y[0]      R9        1
    y[0]      R10       1
    y[0]      R11       1
    y[0]      R12       1
    y[0]      R13       1
    y[0]      R14       1
    y[0]      R15       1
    y[0]      R16       1
    y[0]      R17       1
    y[0]      R172      1
    y[0]      R173      1
    y[1]      OBJ       1
    y[1]      R1        1
    y[1]      R18       1
    y[1]      R19       1
    y[1]      R20       1
    y[1]      R21       1
    y[1]      R22       1
    y[1]      R23       1
    y[1]      R24       1
    y[1]      R25       1
    y[1]      R26       1
    y[1]      R27       1
    y[1]      R28       1
    y[1]      R29       1
    y[1]      R30       1
    y[1]      R31       1
    y[1]      R32       1
    y[1]      R33       1
    y[1]      R174      1
    y[1]      R175      1
    y[2]      OBJ       1
    y[2]      R2        1
    y[2]      R18       1
    y[2]      R34       1
    y[2]      R35       1
    y[2]      R36       1
    y[2]      R37       1
    y[2]      R38       1
    y[2]      R39       1
    y[2]      R40       1
    y[2]      R41       1
    y[2]      R42       1
    y[2]      R43       1
    y[2]      R44       1
    y[2]      R45       1
    y[2]      R46       1
    y[2]      R47       1
    y[2]      R176      1
    y[2]      R177      1
    y[2]      R178      1
    y[3]      OBJ       1
    y[3]      R3        1
    y[3]      R19       1
    y[3]      R34       1
    y[3]      R48       1
    y[3]      R49       1
    y[3]      R50       1
    y[3]      R51       1
    y[3]      R52       1
    y[3]      R53       1
    y[3]      R54       1
    y[3]      R55       1
    y[3]      R56       1
    y[3]      R57       1
    y[3]      R58       1
    y[3]      R59       1
    y[3]      R60       1
    y[3]      R61       1
    y[3]      R62       1
    y[3]      R179      1
    y[4]      OBJ       1
    y[4]      R4        1
    y[4]      R20       1
    y[4]      R48       1
    y[4]      R63       1
    y[4]      R64       1
    y[4]      R65       1
    y[4]      R66       1
    y[4]      R67       1
    y[4]      R68       1
    y[4]      R69       1
    y[4]      R70       1
    y[4]      R71       1
    y[4]      R72       1
    y[4]      R73       1
    y[4]      R74       1
    y[4]      R75       1
    y[4]      R76       1
    y[4]      R77       1
    y[4]      R176      1
    y[5]      OBJ       1
    y[5]      R5        1
    y[5]      R21       1
    y[5]      R35       1
    y[5]      R49       1
    y[5]      R63       1
    y[5]      R78       1
    y[5]      R79       1
    y[5]      R80       1
    y[5]      R81       1
    y[5]      R82       1
    y[5]      R83       1
    y[5]      R84       1
    y[5]      R85       1
    y[5]      R86       1
    y[5]      R87       1
    y[5]      R88       1
    y[5]      R89       1
    y[5]      R180      1
    y[5]      R181      1
    y[6]      OBJ       1
    y[6]      R22       1
    y[6]      R36       1
    y[6]      R64       1
    y[6]      R78       1
    y[6]      R90       1
    y[6]      R91       1
    y[6]      R92       1
    y[6]      R93       1
    y[6]      R94       1
    y[6]      R95       1
    y[6]      R96       1
    y[6]      R97       1
    y[6]      R98       1
    y[6]      R99       1
    y[6]      R100      1
    y[6]      R101      1
    y[6]      R172      1
    y[6]      R179      1
    y[6]      R182      1
    y[7]      OBJ       1
    y[7]      R6        1
    y[7]      R23       1
    y[7]      R37       1
    y[7]      R50       1
    y[7]      R65       1
    y[7]      R79       1
    y[7]      R90       1
    y[7]      R102      1
    y[7]      R103      1
    y[7]      R104      1
    y[7]      R105      1
    y[7]      R106      1
    y[7]      R107      1
    y[7]      R108      1
    y[7]      R109      1
    y[7]      R110      1
    y[7]      R111      1
    y[7]      R112      1
    y[7]      R183      1
    y[8]      OBJ       1
    y[8]      R7        1
    y[8]      R24       1
    y[8]      R38       1
    y[8]      R51       1
    y[8]      R66       1
    y[8]      R80       1
    y[8]      R91       1
    y[8]      R102      1
    y[8]      R113      1
    y[8]      R114      1
    y[8]      R115      1
    y[8]      R116      1
    y[8]      R117      1
    y[8]      R118      1
    y[8]      R119      1
    y[8]      R120      1
    y[8]      R121      1
    y[8]      R122      1
    y[8]      R123      1
    y[9]      OBJ       1
    y[9]      R8        1
    y[9]      R25       1
    y[9]      R39       1
    y[9]      R52       1
    y[9]      R67       1
    y[9]      R81       1
    y[9]      R92       1
    y[9]      R103      1
    y[9]      R113      1
    y[9]      R124      1
    y[9]      R125      1
    y[9]      R126      1
    y[9]      R127      1
    y[9]      R128      1
    y[9]      R129      1
    y[9]      R130      1
    y[9]      R131      1
    y[9]      R132      1
    y[9]      R133      1
    y[10]     OBJ       1
    y[10]     R9        1
    y[10]     R53       1
    y[10]     R68       1
    y[10]     R82       1
    y[10]     R93       1
    y[10]     R104      1
    y[10]     R114      1
    y[10]     R124      1
    y[10]     R134      1
    y[10]     R135      1
    y[10]     R136      1
    y[10]     R137      1
    y[10]     R138      1
    y[10]     R139      1
    y[10]     R140      1
    y[10]     R141      1
    y[10]     R142      1
    y[10]     R174      1
    y[10]     R177      1
    y[11]     OBJ       1
    y[11]     R10       1
    y[11]     R26       1
    y[11]     R54       1
    y[11]     R69       1
    y[11]     R83       1
    y[11]     R94       1
    y[11]     R105      1
    y[11]     R115      1
    y[11]     R125      1
    y[11]     R134      1
    y[11]     R143      1
    y[11]     R144      1
    y[11]     R145      1
    y[11]     R146      1
    y[11]     R147      1
    y[11]     R148      1
    y[11]     R149      1
    y[11]     R178      1
    y[11]     R184      1
    y[12]     OBJ       1
    y[12]     R11       1
    y[12]     R27       1
    y[12]     R40       1
    y[12]     R55       1
    y[12]     R70       1
    y[12]     R84       1
    y[12]     R95       1
    y[12]     R106      1
    y[12]     R116      1
    y[12]     R126      1
    y[12]     R135      1
    y[12]     R143      1
    y[12]     R150      1
    y[12]     R151      1
    y[12]     R152      1
    y[12]     R153      1
    y[12]     R154      1
    y[12]     R185      1
    y[12]     R186      1
    y[13]     OBJ       1
    y[13]     R12       1
    y[13]     R28       1
    y[13]     R41       1
    y[13]     R56       1
    y[13]     R71       1
    y[13]     R85       1
    y[13]     R96       1
    y[13]     R107      1
    y[13]     R117      1
    y[13]     R127      1
    y[13]     R136      1
    y[13]     R150      1
    y[13]     R155      1
    y[13]     R156      1
    y[13]     R157      1
    y[13]     R158      1
    y[13]     R159      1
    y[13]     R184      1
    y[13]     R187      1
    y[14]     OBJ       1
    y[14]     R29       1
    y[14]     R42       1
    y[14]     R57       1
    y[14]     R72       1
    y[14]     R86       1
    y[14]     R97       1
    y[14]     R108      1
    y[14]     R118      1
    y[14]     R128      1
    y[14]     R137      1
    y[14]     R144      1
    y[14]     R155      1
    y[14]     R160      1
    y[14]     R161      1
    y[14]     R162      1
    y[14]     R163      1
    y[14]     R164      1
    y[14]     R173      1
    y[14]     R185      1
    y[15]     OBJ       1
    y[15]     R13       1
    y[15]     R30       1
    y[15]     R43       1
    y[15]     R58       1
    y[15]     R73       1
    y[15]     R87       1
    y[15]     R98       1
    y[15]     R109      1
    y[15]     R119      1
    y[15]     R129      1
    y[15]     R138      1
    y[15]     R145      1
    y[15]     R160      1
    y[15]     R165      1
    y[15]     R166      1
    y[15]     R167      1
    y[15]     R186      1
    y[15]     R187      1
    y[15]     R188      1
    y[16]     OBJ       1
    y[16]     R14       1
    y[16]     R31       1
    y[16]     R44       1
    y[16]     R59       1
    y[16]     R74       1
    y[16]     R99       1
    y[16]     R110      1
    y[16]     R120      1
    y[16]     R130      1
    y[16]     R139      1
    y[16]     R146      1
    y[16]     R151      1
    y[16]     R156      1
    y[16]     R161      1
    y[16]     R165      1
    y[16]     R168      1
    y[16]     R169      1
    y[16]     R180      1
    y[16]     R189      1
    y[17]     OBJ       1
    y[17]     R15       1
    y[17]     R32       1
    y[17]     R45       1
    y[17]     R60       1
    y[17]     R75       1
    y[17]     R88       1
    y[17]     R111      1
    y[17]     R121      1
    y[17]     R131      1
    y[17]     R140      1
    y[17]     R147      1
    y[17]     R152      1
    y[17]     R157      1
    y[17]     R162      1
    y[17]     R168      1
    y[17]     R170      1
    y[17]     R182      1
    y[17]     R188      1
    y[17]     R190      1
    y[18]     OBJ       1
    y[18]     R16       1
    y[18]     R33       1
    y[18]     R46       1
    y[18]     R61       1
    y[18]     R76       1
    y[18]     R89       1
    y[18]     R100      1
    y[18]     R112      1
    y[18]     R122      1
    y[18]     R132      1
    y[18]     R141      1
    y[18]     R148      1
    y[18]     R153      1
    y[18]     R158      1
    y[18]     R163      1
    y[18]     R166      1
    y[18]     R170      1
    y[18]     R171      1
    y[18]     R189      1
    y[19]     OBJ       1
    y[19]     R17       1
    y[19]     R47       1
    y[19]     R62       1
    y[19]     R77       1
    y[19]     R101      1
    y[19]     R123      1
    y[19]     R133      1
    y[19]     R142      1
    y[19]     R149      1
    y[19]     R154      1
    y[19]     R159      1
    y[19]     R164      1
    y[19]     R167      1
    y[19]     R169      1
    y[19]     R171      1
    y[19]     R175      1
    y[19]     R181      1
    y[19]     R183      1
    y[19]     R190      1
    MARKER    'MARKER'                 'INTEND'
RHS
    RHS1      R0        17
    RHS1      R1        2
    RHS1      R2        2
    RHS1      R3        2
    RHS1      R4        2
    RHS1      R5        2
    RHS1      R6        2
    RHS1      R7        2
    RHS1      R8        2
    RHS1      R9        2
    RHS1      R10       2
    RHS1      R11       2
    RHS1      R12       2
    RHS1      R13       2
    RHS1      R14       2
    RHS1      R15       2
    RHS1      R16       2
    RHS1      R17       2
    RHS1      R18       2
    RHS1      R19       2
    RHS1      R20       2
    RHS1      R21       2
    RHS1      R22       2
    RHS1      R23       2
    RHS1      R24       2
    RHS1      R25       2
    RHS1      R26       2
    RHS1      R27       2
    RHS1      R28       2
    RHS1      R29       2
    RHS1      R30       2
    RHS1      R31       2
    RHS1      R32       2
    RHS1      R33       2
    RHS1      R34       2
    RHS1      R35       2
    RHS1      R36       2
    RHS1      R37       2
    RHS1      R38       2
    RHS1      R39       2
    RHS1      R40       2
    RHS1      R41       2
    RHS1      R42       2
    RHS1      R43       2
    RHS1      R44       2
    RHS1      R45       2
    RHS1      R46       2
    RHS1      R47       2
    RHS1      R48       2
    RHS1      R49       2
    RHS1      R50       2
    RHS1      R51       2
    RHS1      R52       2
    RHS1      R53       2
    RHS1      R54       2
    RHS1      R55       2
    RHS1      R56       2
    RHS1      R57       2
    RHS1      R58       2
    RHS1      R59       2
    RHS1      R60       2
    RHS1      R61       2
    RHS1      R62       2
    RHS1      R63       2
    RHS1      R64       2
    RHS1      R65       2
    RHS1      R66       2
    RHS1      R67       2
    RHS1      R68       2
    RHS1      R69       2
    RHS1      R70       2
    RHS1      R71       2
    RHS1      R72       2
    RHS1      R73       2
    RHS1      R74       2
    RHS1      R75       2
    RHS1      R76       2
    RHS1      R77       2
    RHS1      R78       2
    RHS1      R79       2
    RHS1      R80       2
    RHS1      R81       2
    RHS1      R82       2
    RHS1      R83       2
    RHS1      R84       2
    RHS1      R85       2
    RHS1      R86       2
    RHS1      R87       2
    RHS1      R88       2
    RHS1      R89       2
    RHS1      R90       2
    RHS1      R91       2
    RHS1      R92       2
    RHS1      R93       2
    RHS1      R94       2
    RHS1      R95       2
    RHS1      R96       2
    RHS1      R97       2
    RHS1      R98       2
    RHS1      R99       2
    RHS1      R100      2
    RHS1      R101      2
    RHS1      R102      2
    RHS1      R103      2
    RHS1      R104      2
    RHS1      R105      2
    RHS1      R106      2
    RHS1      R107      2
    RHS1      R108      2
    RHS1      R109      2
    RHS1      R110      2
    RHS1      R111      2
    RHS1      R112      2
    RHS1      R113      2
    RHS1      R114      2
    RHS1      R115      2
    RHS1      R116      2
    RHS1      R117      2
    RHS1      R118      2
    RHS1      R119      2
    RHS1      R120      2
    RHS1      R121      2
    RHS1      R122      2
    RHS1      R123      2
    RHS1      R124      2
    RHS1      R125      2
    RHS1      R126      2
    RHS1      R127      2
    RHS1      R128      2
    RHS1      R129      2
    RHS1      R130      2
    RHS1      R131      2
    RHS1      R132      2
    RHS1      R133      2
    RHS1      R134      2
    RHS1      R135      2
    RHS1      R136      2
    RHS1      R137      2
    RHS1      R138      2
    RHS1      R139      2
    RHS1      R140      2
    RHS1      R141      2
    RHS1      R142      2
    RHS1      R143      2
    RHS1      R144      2
    RHS1      R145      2
    RHS1      R146      2
    RHS1      R147      2
    RHS1      R148      2
    RHS1      R149      2
    RHS1      R150      2
    RHS1      R151      2
    RHS1      R152      2
    RHS1      R153      2
    RHS1      R154      2
    RHS1      R155      2
    RHS1      R156      2
    RHS1      R157      2
    RHS1      R158      2
    RHS1      R159      2
    RHS1      R160      2
    RHS1      R161      2
    RHS1      R162      2
    RHS1      R163      2
    RHS1      R164      2
    RHS1      R165      2
    RHS1      R166      2
    RHS1      R167      2
    RHS1      R168      2
    RHS1      R169      2
    RHS1      R170      2
    RHS1      R171      2
    RHS1      R172      1
    RHS1      R173      1
    RHS1      R174      1
    RHS1      R175      1
    RHS1      R176      1
    RHS1      R177      1
    RHS1      R178      1
    RHS1      R179      1
    RHS1      R180      1
    RHS1      R181      1
    RHS1      R182      1
    RHS1      R183      1
    RHS1      R184      1
    RHS1      R185      1
    RHS1      R186      1
    RHS1      R187      1
    RHS1      R188      1
    RHS1      R189      1
    RHS1      R190      1
BOUNDS
 BV BND1      x[0]    
 BV BND1      x[1]    
 BV BND1      x[2]    
 BV BND1      x[3]    
 BV BND1      x[4]    
 BV BND1      x[5]    
 BV BND1      x[6]    
 BV BND1      x[7]    
 BV BND1      x[8]    
 BV BND1      x[9]    
 BV BND1      x[10]   
 BV BND1      x[11]   
 BV BND1      x[12]   
 BV BND1      x[13]   
 BV BND1      x[14]   
 BV BND1      x[15]   
 BV BND1      x[16]   
 BV BND1      x[17]   
 BV BND1      x[18]   
 BV BND1      x[19]   
 BV BND1      x[20]   
 BV BND1      x[21]   
 BV BND1      x[22]   
 BV BND1      x[23]   
 BV BND1      x[24]   
 BV BND1      x[25]   
 BV BND1      x[26]   
 BV BND1      x[27]   
 BV BND1      x[28]   
 BV BND1      x[29]   
 BV BND1      x[30]   
 BV BND1      x[31]   
 BV BND1      x[32]   
 BV BND1      x[33]   
 BV BND1      x[34]   
 BV BND1      x[35]   
 BV BND1      x[36]   
 BV BND1      x[37]   
 BV BND1      x[38]   
 BV BND1      x[39]   
 BV BND1      x[40]   
 BV BND1      x[41]   
 BV BND1      x[42]   
 BV BND1      x[43]   
 BV BND1      x[44]   
 BV BND1      x[45]   
 BV BND1      x[46]   
 BV BND1      x[47]   
 BV BND1      x[48]   
 BV BND1      x[49]   
 BV BND1      x[50]   
 BV BND1      x[51]   
 BV BND1      x[52]   
 BV BND1      x[53]   
 BV BND1      x[54]   
 BV BND1      x[55]   
 BV BND1      x[56]   
 BV BND1      x[57]   
 BV BND1      x[58]   
 BV BND1      x[59]   
 BV BND1      x[60]   
 BV BND1      x[61]   
 BV BND1      x[62]   
 BV BND1      x[63]   
 BV BND1      x[64]   
 BV BND1      x[65]   
 BV BND1      x[66]   
 BV BND1      x[67]   
 BV BND1      x[68]   
 BV BND1      x[69]   
 BV BND1      x[70]   
 BV BND1      x[71]   
 BV BND1      x[72]   
 BV BND1      x[73]   
 BV BND1      x[74]   
 BV BND1      x[75]   
 BV BND1      x[76]   
 BV BND1      x[77]   
 BV BND1      x[78]   
 BV BND1      x[79]   
 BV BND1      x[80]   
 BV BND1      x[81]   
 BV BND1      x[82]   
 BV BND1      x[83]   
 BV BND1      x[84]   
 BV BND1      x[85]   
 BV BND1      x[86]   
 BV BND1      x[87]   
 BV BND1      x[88]   
 BV BND1      x[89]   
 BV BND1      x[90]   
 BV BND1      x[91]   
 BV BND1      x[92]   
 BV BND1      x[93]   
 BV BND1      x[94]   
 BV BND1      x[95]   
 BV BND1      x[96]   
 BV BND1      x[97]   
 BV BND1      x[98]   
 BV BND1      x[99]   
 BV BND1      x[100]  
 BV BND1      x[101]  
 BV BND1      x[102]  
 BV BND1      x[103]  
 BV BND1      x[104]  
 BV BND1      x[105]  
 BV BND1      x[106]  
 BV BND1      x[107]  
 BV BND1      x[108]  
 BV BND1      x[109]  
 BV BND1      x[110]  
 BV BND1      x[111]  
 BV BND1      x[112]  
 BV BND1      x[113]  
 BV BND1      x[114]  
 BV BND1      x[115]  
 BV BND1      x[116]  
 BV BND1      x[117]  
 BV BND1      x[118]  
 BV BND1      x[119]  
 BV BND1      x[120]  
 BV BND1      x[121]  
 BV BND1      x[122]  
 BV BND1      x[123]  
 BV BND1      x[124]  
 BV BND1      x[125]  
 BV BND1      x[126]  
 BV BND1      x[127]  
 BV BND1      x[128]  
 BV BND1      x[129]  
 BV BND1      x[130]  
 BV BND1      x[131]  
 BV BND1      x[132]  
 BV BND1      x[133]  
 BV BND1      x[134]  
 BV BND1      x[135]  
 BV BND1      x[136]  
 BV BND1      x[137]  
 BV BND1      x[138]  
 BV BND1      x[139]  
 BV BND1      x[140]  
 BV BND1      x[141]  
 BV BND1      x[142]  
 BV BND1      x[143]  
 BV BND1      x[144]  
 BV BND1      x[145]  
 BV BND1      x[146]  
 BV BND1      x[147]  
 BV BND1      x[148]  
 BV BND1      x[149]  
 BV BND1      x[150]  
 BV BND1      x[151]  
 BV BND1      x[152]  
 BV BND1      x[153]  
 BV BND1      x[154]  
 BV BND1      x[155]  
 BV BND1      x[156]  
 BV BND1      x[157]  
 BV BND1      x[158]  
 BV BND1      x[159]  
 BV BND1      x[160]  
 BV BND1      x[161]  
 BV BND1      x[162]  
 BV BND1      x[163]  
 BV BND1      x[164]  
 BV BND1      x[165]  
 BV BND1      x[166]  
 BV BND1      x[167]  
 BV BND1      x[168]  
 BV BND1      x[169]  
 BV BND1      x[170]  
 BV BND1      y[0]    
 BV BND1      y[1]    
 BV BND1      y[2]    
 BV BND1      y[3]    
 BV BND1      y[4]    
 BV BND1      y[5]    
 BV BND1      y[6]    
 BV BND1      y[7]    
 BV BND1      y[8]    
 BV BND1      y[9]    
 BV BND1      y[10]   
 BV BND1      y[11]   
 BV BND1      y[12]   
 BV BND1      y[13]   
 BV BND1      y[14]   
 BV BND1      y[15]   
 BV BND1      y[16]   
 BV BND1      y[17]   
 BV BND1      y[18]   
 BV BND1      y[19]   
ENDATA
